
m = 10;

n = 10;

Amin = 40;

Amax = 50;

B = 1920;

lambda = 20.00;

c = 
[[9,4,2,8,8,6,8,8,6,5],
[7,4,6,3,5,5,7,10,5,7],
[5,8,3,5,6,9,10,6,2,4],
[3,9,4,10,4,8,4,10,5,6],
[2,9,6,7,10,9,8,4,9,2],
[10,10,6,2,4,9,9,4,4,7],
[4,4,5,4,10,5,2,3,5,3],
[7,3,10,10,8,10,8,3,3,6],
[10,9,6,6,7,6,4,3,6,4],
[8,8,6,9,9,4,4,9,5,5]];
